NAME : single
TYPE : ATSP
DIMENSION : 9
EDGE_WEIGHT_TYPE : EXPLICIT
EDGE_WEIGHT_FORMAT : FULL_MATRIX
EDGE_WEIGHT_SECTION
0 607 663 625 479 204 193 136 232 
0 0 226 175 150 342 268 292 223 
0 226 0 273 245 454 378 407 332 
0 175 273 0 103 338 265 276 219 
0 150 245 103 0 286 220 174 116 
0 342 454 338 286 0 93 206 200 
0 268 378 265 220 93 0 113 107 
0 292 407 276 174 206 113 0 70 
0 223 332 219 116 200 107 70 0 
EOF